benchmarks_vrp/CMT5/fixed_c_size/CMT5_2.vrp
NAME: CMT5_2
TYPE: CVRP
COMMENT: 1291.29 - Cluster Nr.2
DIMENSION: 12
CAPACITY: 200
EDGE_WEIGHT_TYPE: EUC_2D
NODE_COORD_TYPE: TWOD_COORDS
NODE_COORD_SECTION: 
5 32 12
12 35 35
1 35 16
4 23 3
6 30 5
8 24 12
7 35 17
9 28 18
3 36 16
10 26 13
11 30 15
2 39 10
DEPOT_SECTION: 
12
-1
DEMAND_SECTION: 
10 12
7 7
8 5
9 26
6 8
12 0
2 10
1 29
5 7
3 10
4 7
11 16
EOF
