benchmarks_vrp/CMT5/fixed_c_size/CMT5_2.tour
NAME: CMT5_2 solution
TYPE: TOUR
TOUR_SECTION:
12 7 3 1 2 5 6 4 8 10 11 9 -1
-1
EOF